\* row_knapsack_problem *\
Minimize
knapsack: 8 row_10 + 3 row_11 + 8 row_12 + 8 row_14 + 8 row_16 + 8 row_17
 + 8 row_18 + 6 row_19 + 2 row_20 + 3 row_21 + 8 row_22 + 8 row_24 + 8 row_25
 + 8 row_27 + 8 row_29 + 8 row_3 + 8 row_30 + 8 row_32 + 8 row_34 + 8 row_35
 + 8 row_37 + 7 row_39 + 8 row_40 + 8 row_41 + 7 row_42 + 8 row_44 + 8 row_47
 + 8 row_6 + 3 row_9
Subject To
sensitivity: 5 row_11 + 2 row_19 + 6 row_20 + 5 row_21 + row_39 + row_42
 + 5 row_9 >= 2.5
Bounds
 row_10 <= 1
 row_11 <= 1
 row_12 <= 1
 row_14 <= 1
 row_16 <= 1
 row_17 <= 1
 row_18 <= 1
 row_19 <= 1
 row_20 <= 1
 row_21 <= 1
 row_22 <= 1
 row_24 <= 1
 row_25 <= 1
 row_27 <= 1
 row_29 <= 1
 row_3 <= 1
 row_30 <= 1
 row_32 <= 1
 row_34 <= 1
 row_35 <= 1
 row_37 <= 1
 row_39 <= 1
 row_40 <= 1
 row_41 <= 1
 row_42 <= 1
 row_44 <= 1
 row_47 <= 1
 row_6 <= 1
 row_9 <= 1
End
